5 5
4 1 1 20 3 3 4 4 19 1 4 4 5 8 1 3 2 6 4 16 5 5 9 3 15 2 3 1 7 4 6
5 2 3 17 2 10 4 2 13 3 15 4 13 5 10 2 2 17 3 12 1 3 6 2 5 19 4 12
4 1 2 18 3 2 3 1 16 5 2 3 4 14 1 7 2 7 2 4 18 1 20
7 3 2 2 1 20 3 2 5 2 18 4 16 1 14 3 20 5 11 2 2 17 4 20 2 4 12 5 2 3 3 2 4 8 5 2 5 1 2 3 9 4 13 2 14 5 9 4 3 17 2 12 4 3 1 8
8 1 4 3 5 2 20 1 5 3 18 4 15 5 19 1 1 9 4 2 8 5 12 4 14 1 19 2 2 10 3 11 5 3 5 1 15 2 3 4 6 5 12 1 3 8 1 5 20